n_res = 4;
rcap = [29, 36, 148, 180];
rtype = [1, 1, 2, 2];
n_tasks = 30;
modes = [ {1, 2, 3}, {4, 5, 6}, {7, 8, 9}, {10, 11, 12}, {13, 14, 15}, {16, 17, 18}, {19, 20, 21}, {22, 23, 24}, {25, 26, 27}, {28, 29, 30}, {31, 32, 33}, {34, 35, 36}, {37, 38, 39}, {40, 41, 42}, {43, 44, 45}, {46, 47, 48}, {49, 50, 51}, {52, 53, 54}, {55, 56, 57}, {58, 59, 60}, {61, 62, 63}, {64, 65, 66}, {67, 68, 69}, {70, 71, 72}, {73, 74, 75}, {76, 77, 78}, {79, 80, 81}, {82, 83, 84}, {85, 86, 87}, {88, 89, 90} ];
succ = [ {5, 7, 13}, {4, 6, 23}, {11, 21, 22}, {8}, {14, 24}, {15, 25}, {9, 12, 16}, {13, 26}, {10, 18, 21}, {11, 23}, {25}, {19, 20}, {17}, {22, 27}, {18, 24, 27}, {20, 21}, {18, 24}, {20, 22}, {23, 30}, {28}, {25}, {29}, {27}, {29, 30}, {26, 29}, {28, 30}, {28}, {}, {}, {} ];
n_opt = 90;
dur = [4, 5, 5, 1, 7, 10, 1, 2, 5, 4, 4, 10, 4, 4, 10, 5, 5, 7, 2, 3, 9, 1, 3, 10, 3, 6, 7, 2, 3, 10, 1, 7, 7, 1, 7, 10, 6, 10, 10, 5, 9, 10, 1, 2, 3, 1, 6, 10, 5, 7, 9, 4, 6, 9, 5, 6, 7, 7, 10, 10, 4, 6, 6, 2, 2, 8, 1, 5, 9, 1, 7, 8, 4, 5, 8, 3, 4, 10, 1, 9, 10, 7, 9, 9, 3, 5, 6, 3, 3, 5];
rreq = [|  8,  0,  7,  9,  9,  0,  9,  0,  5,  0,  3,  3,  0,  3,  0, 10,  0, 10,  0,  4,  2,  0,  0,  7,  0,  7,  0,  0,  3,  2,  0,  0,  8,  0,  0,  0,  0,  3,  0,  7,  0,  7,  0,  0,  0,  2,  0,  0,  8,  0,  0,  0,  5,  0,  6,  6,  5,  6,  4,  0,  8,  0,  6,  0, 10,  8,  0,  0,  8,  0,  8,  0,  2,  0,  1,  0,  0,  5,  7,  7,  5,  0,  9,  6,  0,  0,  0, 10,  0, 10
        |  0,  7,  0,  0,  0,  8,  0,  3,  0,  9,  0,  0, 10,  0, 10,  0,  4,  0,  1,  0,  0,  8,  5,  0,  3,  0,  3,  2,  0,  0,  4,  4,  0,  5,  4,  2,  4,  0,  3,  0,  8,  0, 10, 10,  9,  0, 10,  6,  0,  6,  4,  3,  0,  3,  0,  0,  0,  0,  0,  3,  0,  5,  0,  7,  0,  0,  5,  4,  0,  4,  0,  4,  0,  9,  0,  8,  7,  0,  0,  0,  0,  5,  0,  0,  4,  4,  1,  0,  8,  0
        |  4,  4,  3,  6,  4,  1,  8,  6,  6,  4,  4,  3,  9,  9,  7,  5,  4,  2,  6,  6,  5,  7,  4,  2, 10,  7,  2,  4,  4,  2,  6,  5,  5,  2,  2,  2,  7,  5,  5,  6,  6,  4,  8,  6,  5,  5,  4,  4,  4,  4,  3,  4,  2,  1, 10,  7,  6,  6,  5,  5,  7,  5,  6,  8,  6,  5,  4,  2,  2,  5,  4,  3,  1,  1,  1,  7,  7,  6,  9,  5,  5,  8,  2,  5,  9,  8,  6,  5,  6,  3
        |  4,  4,  2,  6,  5,  5,  6,  4,  2,  9,  6,  3,  7,  7,  7,  6,  6,  5,  7,  4,  3,  8,  5,  5,  7,  7,  6, 10,  9,  7, 10,  8,  8,  8,  6,  5, 10,  7,  8,  4,  4,  3,  8,  8,  7,  7,  4,  1,  7,  7,  4,  7,  6,  4,  6,  6,  6,  6,  4,  5,  9,  5,  5,  6,  6,  5,  9,  8,  8,  9,  7,  6,  5,  5,  5,  9,  9,  8, 10,  7,  5,  7,  1,  3,  9,  6,  2,  3,  3,  2 |];
